g3 0 1 0	# problem biggs5 - Generated with AMPL Version 20120406 on 06/10/2012 - Mach-O 64-bit executable x86_64
 6 1 1 0 1	# vars, constraints, objectives, ranges, eqns
 0 1	# nonlinear constraints, objectives
 0 0	# network constraints: nonlinear, linear
 0 6 0	# nonlinear vars in constraints, objectives, both
 0 0 0 1	# linear network variables; functions; arith, flags
 0 0 0 0 0	# discrete variables: binary, integer, nonlinear (b,c,o)
 1 6	# nonzeros in Jacobian, gradients
 0 0   # max name lengths: constraints, variables
 0 0 0 0 0	# common exprs: b,c,o,c1,o1
C0
n0
O0 0
o54
13
o5
o0
o1
o0
o2
v2
o44
o2
n-0.1
v0
n-1.0764003502856656
o2
v3
o44
o2
n-0.1
v1
o2
v5
o44
o2
n-0.1
v4
n2
o5
o0
o1
o0
o2
v2
o44
o2
n-0.2
v0
n-1.490041229246583
o2
v3
o44
o2
n-0.2
v1
o2
v5
o44
o2
n-0.2
v4
n2
o5
o0
o1
o0
o2
v2
o44
o2
n-0.30000000000000004
v0
n-1.3954655145790043
o2
v3
o44
o2
n-0.30000000000000004
v1
o2
v5
o44
o2
n-0.30000000000000004
v4
n2
o5
o0
o1
o0
o2
v2
o44
o2
n-0.4
v0
n-1.1844314055759346
o2
v3
o44
o2
n-0.4
v1
o2
v5
o44
o2
n-0.4
v4
n2
o5
o0
o1
o0
o2
v2
o44
o2
n-0.5
v0
n-0.9788467744270442
o2
v3
o44
o2
n-0.5
v1
o2
v5
o44
o2
n-0.5
v4
n2
o5
o0
o1
o0
o2
v2
o44
o2
n-0.6000000000000001
v0
n-0.8085717350789321
o2
v3
o44
o2
n-0.6000000000000001
v1
o2
v5
o44
o2
n-0.6000000000000001
v4
n2
o5
o0
o1
o0
o2
v2
o44
o2
n-0.7000000000000001
v0
n-0.6744560818392907
o2
v3
o44
o2
n-0.7000000000000001
v1
o2
v5
o44
o2
n-0.7000000000000001
v4
n2
o5
o0
o1
o0
o2
v2
o44
o2
n-0.8
v0
n-0.5699382629128076
o2
v3
o44
o2
n-0.8
v1
o2
v5
o44
o2
n-0.8
v4
n2
o5
o0
o1
o0
o2
v2
o44
o2
n-0.9
v0
n-0.48792377806204335
o2
v3
o44
o2
n-0.9
v1
o2
v5
o44
o2
n-0.9
v4
n2
o5
o0
o1
o0
o2
v2
o44
o16
v0
n-0.4225993581888325
o2
v3
o44
o16
v1
o2
v5
o44
o16
v4
n2
o5
o0
o1
o0
o2
v2
o44
o2
n-1.1
v0
n-0.3696195949033336
o2
v3
o44
o2
n-1.1
v1
o2
v5
o44
o2
n-1.1
v4
n2
o5
o0
o1
o0
o2
v2
o44
o2
n-1.2000000000000002
v0
n-0.3258527319974954
o2
v3
o44
o2
n-1.2000000000000002
v1
o2
v5
o44
o2
n-1.2000000000000002
v4
n2
o5
o0
o1
o0
o2
v2
o44
o2
n-1.3
v0
n-0.28907018464926004
o2
v3
o44
o2
n-1.3
v1
o2
v5
o44
o2
n-1.3
v4
n2
x6
0 1
1 2
2 1
3 1
4 4
5 3
r
4 3
b
3
3
3
3
3
3
k5
0
0
0
0
0
J0 1
5 1
G0 6
0 0
1 0
2 0
3 0
4 0
5 0
